NAME : portcgen-16-1
COMMENT : portcgen N=16, seed=1
TYPE : TSP
DIMENSION : 16
EDGE_WEIGHT_TYPE : EUC_2D
NODE_COORD_SECTION
1 -168412 -343628
2 -122066 -143135
3 -54683 45498
4 -18803 -108213
5 -404154 120119
6 -164925 -263402
7 -345037 97329
8 224502 274811
9 281670 -143194
10 -148007 -152393
11 45544 119317
12 -141913 -42572
13 29277 -8967
14 -293610 447714
15 -92249 84738
16 -123193 -1480
